
Gurobi 11.0.0 (linux64) logging started Thu Aug 15 11:34:03 2024

Set parameter LogFile to value "gurobi.log"
Set parameter InfUnbdInfo to value 1
Gurobi Optimizer version 11.0.0 build v11.0.0rc2 (linux64 - "Ubuntu 22.04.4 LTS")

CPU model: AMD EPYC 7V13 64-Core Processor, instruction set [SSE2|AVX|AVX2]
Thread count: 128 physical cores, 128 logical processors, using up to 32 threads

Optimize a model with 94 rows, 266 columns and 282 nonzeros
Model fingerprint: 0xac245090
Model has 166 quadratic constraints
Model has 2 general constraints
Variable types: 60 continuous, 206 integer (0 binary)
Coefficient statistics:
  Matrix range     [1e+00, 5e+05]
  QMatrix range    [1e+00, 2e+05]
  QLMatrix range   [1e+00, 6e+05]
  Objective range  [1e+00, 1e+00]
  Bounds range     [1e+00, 3e+10]
  RHS range        [1e+00, 2e+06]
  QRHS range       [1e+00, 2e+06]
Warning: Model contains large bounds
         Consider reformulating model or setting NumericFocus parameter
         to avoid numerical issues.
Using branch priorities (all 0).
Presolve added 19 rows and 53 columns
Presolve time: 0.00s
Presolved: 676 rows, 453 columns, 2940 nonzeros
Presolved model has 80 SOS constraint(s)
Presolved model has 106 bilinear constraint(s)
Warning: Model contains variables with very large bounds participating
         in product terms.
         Presolve was not able to compute smaller bounds for these variables.
         Consider bounding these variables or reformulating the model.


Solving non-convex MIQCP

Variable types: 145 continuous, 308 integer (98 binary)

Root relaxation: objective 4.032172e+04, 233 iterations, 0.00 seconds (0.00 work units)

    Nodes    |    Current Node    |     Objective Bounds      |     Work
 Expl Unexpl |  Obj  Depth IntInf | Incumbent    BestBd   Gap | It/Node Time

     0     0 40321.7172    0  117          - 40321.7172      -     -    0s
     0     0 40323.8545    0  169          - 40323.8545      -     -    0s
     0     0 40328.7122    0  168          - 40328.7122      -     -    0s
     0     0 40328.7122    0  174          - 40328.7122      -     -    0s
     0     0 40337.1356    0  217          - 40337.1356      -     -    0s
     0     0 40337.1356    0  223          - 40337.1356      -     -    0s
     0     0 40337.1356    0  226          - 40337.1356      -     -    0s
H    0     0                    396229.99999 40344.9134  89.8%     -    0s
     0     0 40344.9134    0  233 396230.000 40344.9134  89.8%     -    0s
     0     0 40376.4742    0  246 396230.000 40376.4742  89.8%     -    0s
H    0     0                    395679.99999 40378.3873  89.8%     -    0s
     0     0 40378.3873    0  222 395680.000 40378.3873  89.8%     -    0s
     0     0 40386.8347    0  240 395680.000 40386.8347  89.8%     -    0s
H    0     0                    81012.000000 40389.3040  50.1%     -    0s
H    0     0                    78052.000000 40389.3040  48.3%     -    0s
     0     0 40393.9277    0  243 78052.0000 40393.9277  48.2%     -    0s
     0     0 40409.1524    0  226 78052.0000 40409.1524  48.2%     -    0s
H    0     0                    77748.000000 40420.4908  48.0%     -    0s
     0     0 40420.4908    0  237 77748.0000 40420.4908  48.0%     -    0s
     0     0 40433.5378    0  225 77748.0000 40433.5378  48.0%     -    0s
H    0     0                    61547.898745 40434.3969  34.3%     -    0s
     0     0 40434.6267    0  246 61547.8987 40434.6267  34.3%     -    0s
     0     0 40444.6824    0  240 61547.8987 40444.6824  34.3%     -    0s
     0     0 40444.6992    0  249 61547.8987 40444.6992  34.3%     -    0s
     0     0 40445.1270    0  251 61547.8987 40445.1270  34.3%     -    0s
     0     0 40445.3465    0  251 61547.8987 40445.3465  34.3%     -    0s
     0     0 40447.0291    0  248 61547.8987 40447.0291  34.3%     -    0s
H    0     0                    60797.898745 40447.0291  33.5%     -    0s
     0     0 40449.1907    0  240 60797.8987 40449.1907  33.5%     -    0s
     0     0 40450.9640    0  247 60797.8987 40450.9640  33.5%     -    0s
     0     0 40453.1613    0  238 60797.8987 40453.1613  33.5%     -    0s
     0     0 40460.3132    0  250 60797.8987 40460.3132  33.5%     -    0s
     0     0 40462.2821    0  187 60797.8987 40462.2821  33.4%     -    0s
H    0     0                    60047.898745 40462.2821  32.6%     -    0s
     0     0 40462.2821    0  105 60047.8987 40462.2821  32.6%     -    0s
     0     0 40462.2821    0  182 60047.8987 40462.2821  32.6%     -    0s
     0     0 40462.2821    0  170 60047.8987 40462.2821  32.6%     -    0s
     0     0 40462.2821    0  180 60047.8987 40462.2821  32.6%     -    0s
     0     0 40462.2821    0  191 60047.8987 40462.2821  32.6%     -    0s
     0     0 40465.4065    0  152 60047.8987 40465.4065  32.6%     -    0s
     0     0 40469.2297    0  166 60047.8987 40469.2297  32.6%     -    0s
H    0     0                    59997.898745 40469.2297  32.5%     -    0s
     0     0 40472.5010    0  158 59997.8987 40472.5010  32.5%     -    0s
     0     0 40472.6572    0  158 59997.8987 40472.6572  32.5%     -    0s
     0     0 40477.4206    0  171 59997.8987 40477.4206  32.5%     -    0s
     0     0 40487.2269    0  171 59997.8987 40487.2269  32.5%     -    0s
     0     0 40492.2730    0  169 59997.8987 40492.2730  32.5%     -    0s
H    0     0                    59996.898745 40492.2730  32.5%     -    0s
     0     0 40510.6067    0  169 59996.8987 40510.6067  32.5%     -    0s
     0     0 40541.8801    0  198 59996.8987 40541.8801  32.4%     -    0s
     0     0 40556.0484    0  199 59996.8987 40556.0484  32.4%     -    0s
     0     0 40560.4139    0  178 59996.8987 40560.4139  32.4%     -    0s
H    0     0                    59297.898745 40579.1224  31.6%     -    0s
     0     0 40579.1224    0  173 59297.8987 40579.1224  31.6%     -    0s
     0     0 40600.4537    0  198 59297.8987 40600.4537  31.5%     -    0s
     0     0 40615.4918    0  203 59297.8987 40615.4918  31.5%     -    0s
     0     0 40628.0694    0  172 59297.8987 40628.0694  31.5%     -    0s
     0     0 40640.0518    0  172 59297.8987 40640.0518  31.5%     -    0s
     0     0 40654.1525    0  198 59297.8987 40654.1525  31.4%     -    0s
     0     0 40654.2774    0  201 59297.8987 40654.2774  31.4%     -    0s
     0     0 40657.8906    0  205 59297.8987 40657.8906  31.4%     -    0s
     0     0 40674.0445    0  181 59297.8987 40674.0445  31.4%     -    0s
H    0     2                    58997.898745 40674.0445  31.1%     -    0s
     0     2 40674.0445    0  181 58997.8987 40674.0445  31.1%     -    0s
H   31    64                    58947.898745 40674.0445  31.0%  29.5    0s
H   95   124                    51036.899552 40674.0445  20.3%  22.7    0s
H  126   124                    46502.376605 40674.0445  12.5%  20.0    0s
H  579   604                    44918.376605 40674.0445  9.45%  13.7    1s
H 1083   926                    44618.376605 40674.0445  8.84%  11.3    1s
H 1279  1068                    44568.376605 40674.0445  8.74%  11.2    1s
H 1359  1068                    44268.376605 40674.0445  8.12%  11.1    1s
H 1367  1068                    44264.376605 40674.0445  8.11%  11.1    1s
* 2267  1597              14    43980.376601 40674.0445  7.52%  10.1    1s
H 4642  2517                    43854.376605 40762.3539  7.05%   8.7    1s
*11496  3063              51    43747.575237 40941.2576  6.41%   9.0    4s
H11855  2822                    43669.164223 40941.2576  6.25%   9.0    4s
H11878  2668                    43649.198633 40941.2576  6.20%   9.0    4s
 14705  2430 infeasible   33      43649.1986 41231.3420  5.54%   9.0    5s
H14707  2380                    43570.787619 41231.3420  5.37%   9.0    5s
 36113    84     cutoff   33      43570.7876 42886.2560  1.57%  11.2   10s

Cutting planes:
  Learned: 4

Explored 37665 nodes (424388 simplex iterations) in 10.18 seconds (3.12 work units)
Thread count was 32 (of 128 available processors)

Solution count 10: 43570.8 43649.2 43669.2 ... 44618.4

Optimal solution found (tolerance 1.00e-10)
Warning: max constraint violation (4.2945e-03) exceeds tolerance
Warning: max general constraint violation (4.2945e-03) exceeds tolerance
  Piecewise linearization of function constraints often causes big violation.
  Try to adjust the settings of the related parameters, such as FuncPieces.
Best objective 4.357078761874e+04, best bound 4.357078761874e+04, gap 0.0000%
